
Value of objective function: 34.00000000

Actual values of the variables:
x11_21                          1
x11_22                          0
x11_23                          0
x11_24                          0
x11_25                          0
x11_31                          0
x11_32                          1
x11_33                          0
x11_34                          0
x12_21                          0
x12_22                          0
x12_23                          1
x12_24                          0
x12_25                          0
x12_31                          0
x12_32                          0
x12_33                          0
x12_34                          0
x13_21                          0
x13_22                          0
x13_23                          0
x13_24                          1
x13_25                          0
x13_31                          0
x13_32                          0
x13_33                          1
x13_34                          0
x14_21                          0
x14_22                          0
x14_23                          0
x14_24                          0
x14_25                          1
x14_31                          0
x14_32                          0
x14_33                          0
x14_34                          1
x21_31                          0
x21_32                          0
x21_33                          0
x21_34                          0
x22_31                          0
x22_32                          0
x22_33                          0
x22_34                          0
x23_31                          1
x23_32                          0
x23_33                          0
x23_34                          0
x24_31                          0
x24_32                          1
x24_33                          0
x24_34                          0
x25_31                          0
x25_32                          0
x25_33                          1
x25_34                          0
